; benchmark generated from python API
(set-info :status unknown)
(declare-datatypes ((IntState 0)) (((Mk1 (val1 Int)) (Mk2 (val2 Int)))))
 (declare-fun c_main_~k~6 () Int)
(declare-fun c_main_~j~6 () Int)
(declare-fun c_main_~i~6 () Int)
(assert
 (let (($x96 (exists ((main_~i~6_st IntState) (val!33 Int) )(let ((?x56 (val2 main_~i~6_st)))
 (let (($x115 (<= ?x56 4)))
 (let (($x134 (and (<= c_main_~j~6 (+ (* 2 ?x56) 1)) $x115 (<= ?x56 c_main_~k~6))))
 (let (($x52 (not (= main_~i~6_st (Mk1 val!33)))))
 (and $x52 $x134))))))
 ))
 (let (($x47 (<= c_main_~i~6 3)))
 (let ((?x42 (* 2 c_main_~i~6)))
 (let (($x60 (<= c_main_~j~6 ?x42)))
 (let (($x126 (<= c_main_~i~6 4)))
 (let (($x131 (<= c_main_~j~6 (+ ?x42 1))))
 (let (($x33 (exists ((main_~i~6 Int) )(let (($x88 (<= main_~i~6 4)))
 (and (<= c_main_~j~6 (+ (* 2 main_~i~6) 1)) $x88 (<= main_~i~6 c_main_~k~6))))
 ))
 (let (($x25 (<= c_main_~i~6 2)))
 (let (($x157 (<= c_main_~i~6 1)))
 (and (and $x157 $x131 $x126 $x25 $x60 $x47 $x33) (not (and $x131 $x126 $x60 $x47 $x96)))))))))))))
(check-sat)
